3117.90 0
0 63 56 54 62 136 60 55 61 0
0 134 118 128 116 122 117 114 113 124 119 120 125 135 0
0 36 24 29 37 123 127 115 132 64 0
0 52 59 53 0
0 20 35 26 31 32 30 23 25 34 27 0
0 18 21 22 28 19 33 0
0 105 42 45 48 50 49 47 40 38 43 44 41 57 0
0 138 139 144 89 84 142 147 140 148 141 143 146 0
0 109 98 97 111 0
0 129 133 69 72 67 73 126 121 0
0 130 131 71 70 68 65 74 66 39 46 51 58 0
0 106 100 104 15 4 10 3 9 17 5 16 150 110 102 107 0
0 75 88 86 91 81 82 78 83 79 92 80 137 0
0 149 145 6 1 14 2 13 12 11 8 7 101 108 99 103 112 0
0 94 96 95 93 90 87 85 77 76 0
